(declare-fun a () Real)
(declare-fun b () Real)
(declare-fun c () Real)
(declare-fun opt () Real)
(assert (> a 0))
(assert (> b 0))
(assert (> c 0))
(assert (< a (+ b c)))
(assert (< b (+ a c)))
(assert (< c (+ b a)))
(assert (= opt (+ (* a a b (- a b)) (* b b c (- b c)) (* c c a (- c a)))))
(minimize opt)
(check-sat)
(get-objectives)
